%nprocshared=9
%mem=42GB
%chk=Anthracene.chk
# b3lyp/6-31g(d,p)
# symmetry=none

tcal

0 1
C       3.202980    1.265029    4.418408
H       2.850050    2.121173    4.628957
C       4.336924    0.806381    5.093659
C       4.978122    1.583985    6.103210
H       4.630383    2.439528    6.326323
C       6.082474    1.118142    6.752184
H       6.491846    1.646936    7.426696
C       2.578638    0.488625    3.439076
C       1.408112    0.929887    2.745677
H       1.030716    1.776437    2.957047
C       0.825726    0.157679    1.788270
H       0.051000    0.470639    1.336050
C       4.248730   -1.265029    3.793330
H       4.601659   -2.121173    3.582781
C       3.114785   -0.806381    3.118079
C       2.473588   -1.583985    2.108528
H       2.821327   -2.439528    1.885415
C       1.369236   -1.118142    1.459554
H       0.959863   -1.646936    0.785042
C       4.873071   -0.488625    4.772662
C       6.043597   -0.929887    5.466061
H       6.420994   -1.776437    5.254691
C       6.625983   -0.157679    6.423468
H       7.400709   -0.470639    6.875688
C       3.202980    7.260429    4.418408
H       2.850050    8.116573    4.628957
C       4.336924    6.801781    5.093659
C       4.978122    7.579385    6.103210
H       4.630383    8.434928    6.326323
C       6.082474    7.113542    6.752184
H       6.491846    7.642336    7.426696
C       2.578638    6.484025    3.439076
C       1.408112    6.925287    2.745677
H       1.030716    7.771837    2.957047
C       0.825726    6.153079    1.788270
H       0.051000    6.466039    1.336050
C       4.248730    4.730371    3.793330
H       4.601659    3.874227    3.582781
C       3.114785    5.189019    3.118079
C       2.473588    4.411415    2.108528
H       2.821327    3.555872    1.885415
C       1.369236    4.877258    1.459554
H       0.959863    4.348464    0.785042
C       4.873071    5.506775    4.772662
C       6.043597    5.065513    5.466061
H       6.420994    4.218963    5.254691
C       6.625983    5.837721    6.423468
H       7.400709    5.524761    6.875688

--Link1--
%chk=Anthracene.chk
%nprocshared=9
%mem=42GB
# b3lyp/6-31g(d,p)
# symmetry=none
# geom=allcheck
# guess=read
# pop=full
# iop(3/33=4,5/33=3)
